
Gurobi 11.0.1 (win64) logging started Thu Mar 21 03:02:49 2024

Set parameter LogFile to value "C:\Projetos\Job_Rotation_Algorithms\Outputs\GurobiLogs\gurobi_log-output-21_hes-c210-BorbaRittModel-NoExtraConstraint-2.log"
Gurobi Optimizer version 11.0.1 build v11.0.1rc0 (win64 - Windows 10.0 (19045.2))

CPU model: 11th Gen Intel(R) Core(TM) i7-1165G7 @ 2.80GHz, instruction set [SSE2|AVX|AVX2|AVX512]
Thread count: 4 physical cores, 8 logical processors, using up to 1 threads

WLS license 901039 - registered to Bitka Analytics
Optimize a model with 914 rows, 311 columns and 2925 nonzeros
Model fingerprint: 0xe393d1a4
Variable types: 2 continuous, 309 integer (309 binary)
Coefficient statistics:
  Matrix range     [1e+00, 2e+02]
  Objective range  [1e+00, 1e+00]
  Bounds range     [1e+00, 4e+02]
  RHS range        [1e+00, 4e+02]
Presolve removed 5 rows and 5 columns
Presolve time: 0.02s
Presolved: 909 rows, 306 columns, 2915 nonzeros
Variable types: 0 continuous, 306 integer (305 binary)

Root relaxation: objective 5.600000e+01, 556 iterations, 0.02 seconds (0.01 work units)

    Nodes    |    Current Node    |     Objective Bounds      |     Work
 Expl Unexpl |  Obj  Depth IntInf | Incumbent    BestBd   Gap | It/Node Time

     0     0   56.00000    0   92          -   56.00000      -     -    0s
     0     0   56.00000    0  129          -   56.00000      -     -    0s
     0     0   56.00000    0  129          -   56.00000      -     -    0s
     0     0   56.00000    0   97          -   56.00000      -     -    0s
     0     0   56.00000    0   94          -   56.00000      -     -    0s
     0     0   56.00000    0  103          -   56.00000      -     -    0s
     0     0   56.00000    0  104          -   56.00000      -     -    0s
     0     0   56.00000    0   92          -   56.00000      -     -    0s
     0     0   56.00000    0   88          -   56.00000      -     -    0s
     0     0   56.00000    0   85          -   56.00000      -     -    0s
     0     0   56.00000    0   85          -   56.00000      -     -    0s
     0     2   56.00000    0   85          -   56.00000      -     -    0s
H  806   400                      42.0000000   56.00000  33.3%  11.3    2s
H  806   380                      43.0000000   56.00000  30.2%  11.3    2s
H  832   376                      44.0000000   56.00000  27.3%  13.8    3s
H  834   357                      47.0000000   56.00000  19.1%  13.9    3s
H  993   333                      48.0000000   56.00000  16.7%  26.1    3s
  1373   321     cutoff   21        48.00000   56.00000  16.7%  40.2    5s
H 1553   264                      49.0000000   56.00000  14.3%  43.5    5s
H 1659   241                      50.0000000   56.00000  12.0%  45.0    5s
H 1664   231                      51.0000000   56.00000  9.80%  45.0    5s
H 1685   214                      52.0000000   56.00000  7.69%  45.3    5s
H 2212   256                      53.0000000   56.00000  5.66%  52.9    7s
  3098   207   54.60106   22  148   53.00000   55.60462  4.91%  53.8   10s

Cutting planes:
  Gomory: 1
  Flow cover: 1
  RLT: 3

Explored 4102 nodes (241420 simplex iterations) in 11.02 seconds (11.96 work units)
Thread count was 1 (of 8 available processors)

Solution count 10: 53 52 51 ... 42

Optimal solution found (tolerance 1.00e-03)
Best objective 5.300000000000e+01, best bound 5.300000000000e+01, gap 0.0000%
